(set-logic ALL)
(declare-const n_VAR Int)
(assert (not (<= n_VAR 0)))
(assert (not (= n_VAR 2)))
(assert (> n_VAR 2))
(assert (not (= (mod n_VAR 2) 0)))
(assert (not (= (mod n_VAR 3) 0)))
(assert (not (= (mod n_VAR 4) 0)))
(assert (not (= (mod n_VAR 5) 0)))
(assert (not (= (mod n_VAR 6) 0)))
(assert (not (= (mod n_VAR 7) 0)))
(assert (not (= (mod n_VAR 8) 0)))
(assert (not (= (mod n_VAR 9) 0)))
(assert (not (= (mod n_VAR 10) 0)))
(assert (not (= (mod n_VAR 11) 0)))
(assert (not (= (mod n_VAR 12) 0)))
(assert (not (= (mod n_VAR 13) 0)))
(assert (not (= (mod n_VAR 14) 0)))
(assert (not (= (mod n_VAR 15) 0)))
(assert (not (= (mod n_VAR 16) 0)))
(assert (not (= (mod n_VAR 17) 0)))
(assert (not (= (mod n_VAR 18) 0)))
(assert (not (= (mod n_VAR 19) 0)))
(assert (not (= (mod n_VAR 20) 0)))
(assert (not (= (mod n_VAR 21) 0)))
(assert (not (= (mod n_VAR 22) 0)))
(assert (not (= (mod n_VAR 23) 0)))
(assert (not (= (mod n_VAR 24) 0)))
(assert (not (= (mod n_VAR 25) 0)))
(assert (not (= (mod n_VAR 26) 0)))
(assert (not (= (mod n_VAR 27) 0)))
(assert (not (= (mod n_VAR 28) 0)))
(assert (not (= (mod n_VAR 29) 0)))
(assert (not (= (mod n_VAR 30) 0)))
(assert (not (= (mod n_VAR 31) 0)))
(assert (not (= (mod n_VAR 32) 0)))
(assert (not (= (mod n_VAR 33) 0)))
(assert (not (= (mod n_VAR 34) 0)))
(assert (not (= (mod n_VAR 35) 0)))
(assert (not (= (mod n_VAR 36) 0)))
(assert (not (= (mod n_VAR 37) 0)))
(assert (not (= (mod n_VAR 38) 0)))
(assert (not (= (mod n_VAR 39) 0)))
(assert (not (= (mod n_VAR 40) 0)))
(assert (not (= (mod n_VAR 41) 0)))
(assert (not (= (mod n_VAR 42) 0)))
(assert (not (= (mod n_VAR 43) 0)))
(assert (not (= (mod n_VAR 44) 0)))
(assert (not (= (mod n_VAR 45) 0)))
(assert (not (= (mod n_VAR 46) 0)))
(assert (not (= (mod n_VAR 47) 0)))
(assert (not (= (mod n_VAR 48) 0)))
(assert (not (= (mod n_VAR 49) 0)))
(assert (not (= (mod n_VAR 50) 0)))
(assert (not (= (mod n_VAR 51) 0)))
(assert (not (= (mod n_VAR 52) 0)))
(assert (not (= (mod n_VAR 53) 0)))
(assert (not (= (mod n_VAR 54) 0)))
(assert (not (= (mod n_VAR 55) 0)))
(assert (not (= (mod n_VAR 56) 0)))
(assert (not (= (mod n_VAR 57) 0)))
(assert (not (= (mod n_VAR 58) 0)))
(assert (not (= (mod n_VAR 59) 0)))
(assert (not (= (mod n_VAR 60) 0)))
(assert (not (= (mod n_VAR 61) 0)))
(assert (not (= (mod n_VAR 62) 0)))
(assert (not (= (mod n_VAR 63) 0)))
(assert (not (= (mod n_VAR 64) 0)))
(assert (not (= (mod n_VAR 65) 0)))
(assert (not (= (mod n_VAR 66) 0)))
(assert (not (= (mod n_VAR 67) 0)))
(assert (not (= (mod n_VAR 68) 0)))
(assert (not (= (mod n_VAR 69) 0)))
(assert (not (= (mod n_VAR 70) 0)))
(assert (not (= (mod n_VAR 71) 0)))
(assert (not (= (mod n_VAR 72) 0)))
(assert (not (= (mod n_VAR 73) 0)))
(assert (not (= (mod n_VAR 74) 0)))
(assert (not (= (mod n_VAR 75) 0)))
(assert (not (= (mod n_VAR 76) 0)))
(assert (not (= (mod n_VAR 77) 0)))
(assert (not (= (mod n_VAR 78) 0)))
(assert (not (= (mod n_VAR 79) 0)))
(assert (not (= (mod n_VAR 80) 0)))
(assert (not (= (mod n_VAR 81) 0)))
(assert (not (= (mod n_VAR 82) 0)))
(assert (not (= (mod n_VAR 83) 0)))
(assert (not (= (mod n_VAR 84) 0)))
(assert (not (= (mod n_VAR 85) 0)))
(assert (not (= (mod n_VAR 86) 0)))
(assert (not (= (mod n_VAR 87) 0)))
(assert (not (= (mod n_VAR 88) 0)))
(assert (not (= (mod n_VAR 89) 0)))
(assert (not (= (mod n_VAR 90) 0)))
(assert (not (= (mod n_VAR 91) 0)))
(assert (not (= (mod n_VAR 92) 0)))
(assert (not (= (mod n_VAR 93) 0)))
(assert (not (= (mod n_VAR 94) 0)))
(assert (not (= (mod n_VAR 95) 0)))
(assert (not (= (mod n_VAR 96) 0)))
(assert (not (= (mod n_VAR 97) 0)))
(assert (not (= (mod n_VAR 98) 0)))
(assert (not (= (mod n_VAR 99) 0)))
(assert (not (= (mod n_VAR 100) 0)))
(assert (not (= (mod n_VAR 101) 0)))
(assert (not (= (mod n_VAR 102) 0)))
(assert (not (= (mod n_VAR 103) 0)))
(assert (not (= (mod n_VAR 104) 0)))
(assert (not (= (mod n_VAR 105) 0)))
(assert (not (= (mod n_VAR 106) 0)))
(assert (not (= (mod n_VAR 107) 0)))
(assert (not (= (mod n_VAR 108) 0)))
(assert (not (= (mod n_VAR 109) 0)))
(assert (not (= (mod n_VAR 110) 0)))
(assert (not (= (mod n_VAR 111) 0)))
(assert (not (= (mod n_VAR 112) 0)))
(assert (not (= (mod n_VAR 113) 0)))
(assert (not (= (mod n_VAR 114) 0)))
(assert (not (= (mod n_VAR 115) 0)))
(assert (not (= (mod n_VAR 116) 0)))
(assert (not (= (mod n_VAR 117) 0)))
(assert (not (= (mod n_VAR 118) 0)))
(assert (not (= (mod n_VAR 119) 0)))
(assert (not (= (mod n_VAR 120) 0)))
(assert (not (= (mod n_VAR 121) 0)))
(assert (not (= (mod n_VAR 122) 0)))
(assert (not (= (mod n_VAR 123) 0)))
(assert (not (= (mod n_VAR 124) 0)))
(assert (not (= (mod n_VAR 125) 0)))
(assert (not (= (mod n_VAR 126) 0)))
(assert (not (= (mod n_VAR 127) 0)))
(assert (not (= (mod n_VAR 128) 0)))
(assert (not (= (mod n_VAR 129) 0)))
(assert (not (= (mod n_VAR 130) 0)))
(assert (not (= (mod n_VAR 131) 0)))
(assert (not (= (mod n_VAR 132) 0)))
(assert (not (= (mod n_VAR 133) 0)))
(assert (not (= (mod n_VAR 134) 0)))
(assert (not (= (mod n_VAR 135) 0)))
(assert (not (= (mod n_VAR 136) 0)))
(assert (not (= (mod n_VAR 137) 0)))
(assert (not (= (mod n_VAR 138) 0)))
(assert (not (= (mod n_VAR 139) 0)))
(assert (not (= (mod n_VAR 140) 0)))
(assert (not (= (mod n_VAR 141) 0)))
(assert (not (= (mod n_VAR 142) 0)))
(assert (not (= (mod n_VAR 143) 0)))
(assert (not (= (mod n_VAR 144) 0)))
(assert (not (= (mod n_VAR 145) 0)))
(assert (not (= (mod n_VAR 146) 0)))
(assert (not (= (mod n_VAR 147) 0)))
(assert (not (= (mod n_VAR 148) 0)))
(assert (not (= (mod n_VAR 149) 0)))
(assert (not (= (mod n_VAR 150) 0)))
(assert (not (= (mod n_VAR 151) 0)))
(assert (not (= (mod n_VAR 152) 0)))
(assert (not (= (mod n_VAR 153) 0)))
(assert (not (= (mod n_VAR 154) 0)))
(assert (not (= (mod n_VAR 155) 0)))
(assert (not (= (mod n_VAR 156) 0)))
(assert (not (= (mod n_VAR 157) 0)))
(assert (not (= (mod n_VAR 158) 0)))
(assert (not (= (mod n_VAR 159) 0)))
(assert (not (= (mod n_VAR 160) 0)))
(assert (not (= (mod n_VAR 161) 0)))
(assert (not (= (mod n_VAR 162) 0)))
(assert (not (= (mod n_VAR 163) 0)))
(assert (not (= (mod n_VAR 164) 0)))
(assert (not (= (mod n_VAR 165) 0)))
(assert (not (= (mod n_VAR 166) 0)))
(assert (not (= (mod n_VAR 167) 0)))
(assert (not (= (mod n_VAR 168) 0)))
(assert (not (= (mod n_VAR 169) 0)))
(assert (not (= (mod n_VAR 170) 0)))
(assert (not (= (mod n_VAR 171) 0)))
(assert (not (= (mod n_VAR 172) 0)))
(assert (not (= (mod n_VAR 173) 0)))
(assert (not (= (mod n_VAR 174) 0)))
(assert (not (= (mod n_VAR 175) 0)))
(assert (not (= (mod n_VAR 176) 0)))
(assert (not (= (mod n_VAR 177) 0)))
(assert (not (= (mod n_VAR 178) 0)))
(assert (not (= (mod n_VAR 179) 0)))
(assert (not (= (mod n_VAR 180) 0)))
(assert (not (= (mod n_VAR 181) 0)))
(assert (not (= (mod n_VAR 182) 0)))
(assert (not (= (mod n_VAR 183) 0)))
(assert (not (= (mod n_VAR 184) 0)))
(assert (not (= (mod n_VAR 185) 0)))
(assert (not (= (mod n_VAR 186) 0)))
(assert (not (= (mod n_VAR 187) 0)))
(assert (not (= (mod n_VAR 188) 0)))
(assert (not (= (mod n_VAR 189) 0)))
(assert (not (= (mod n_VAR 190) 0)))
(assert (not (= (mod n_VAR 191) 0)))
(assert (not (= (mod n_VAR 192) 0)))
(assert (not (= (mod n_VAR 193) 0)))
(assert (not (= (mod n_VAR 194) 0)))
(assert (not (= (mod n_VAR 195) 0)))
(assert (not (= (mod n_VAR 196) 0)))
(assert (not (= (mod n_VAR 197) 0)))
(assert (not (= (mod n_VAR 198) 0)))
(assert (not (= (mod n_VAR 199) 0)))
(assert (not (= (mod n_VAR 200) 0)))
(assert (not (= (mod n_VAR 201) 0)))
(assert (not (= (mod n_VAR 202) 0)))
(assert (not (= (mod n_VAR 203) 0)))
(assert (not (= (mod n_VAR 204) 0)))
(assert (not (= (mod n_VAR 205) 0)))
(assert (not (= (mod n_VAR 206) 0)))
(assert (not (= (mod n_VAR 207) 0)))
(assert (not (= (mod n_VAR 208) 0)))
(assert (not (= (mod n_VAR 209) 0)))
(assert (not (= (mod n_VAR 210) 0)))
(assert (not (= (mod n_VAR 211) 0)))
(assert (not (= (mod n_VAR 212) 0)))
(assert (not (= (mod n_VAR 213) 0)))
(assert (not (= (mod n_VAR 214) 0)))
(assert (not (= (mod n_VAR 215) 0)))
(assert (not (= (mod n_VAR 216) 0)))
(assert (not (= (mod n_VAR 217) 0)))
(assert (not (= (mod n_VAR 218) 0)))
(assert (not (= (mod n_VAR 219) 0)))
(assert (not (= (mod n_VAR 220) 0)))
(assert (not (= (mod n_VAR 221) 0)))
(assert (not (= (mod n_VAR 222) 0)))
(assert (not (= (mod n_VAR 223) 0)))
(assert (not (= (mod n_VAR 224) 0)))
(assert (not (= (mod n_VAR 225) 0)))
(assert (not (= (mod n_VAR 226) 0)))
(assert (not (= (mod n_VAR 227) 0)))
(assert (not (= (mod n_VAR 228) 0)))
(assert (not (= (mod n_VAR 229) 0)))
(assert (not (= (mod n_VAR 230) 0)))
(assert (not (= (mod n_VAR 231) 0)))
(assert (not (= (mod n_VAR 232) 0)))
(assert (not (= (mod n_VAR 233) 0)))
(assert (not (= (mod n_VAR 234) 0)))
(assert (not (= (mod n_VAR 235) 0)))
(assert (not (= (mod n_VAR 236) 0)))
(assert (not (= (mod n_VAR 237) 0)))
(assert (not (= (mod n_VAR 238) 0)))
(assert (not (= (mod n_VAR 239) 0)))
(assert (not (= (mod n_VAR 240) 0)))
(assert (not (= (mod n_VAR 241) 0)))
(assert (not (= (mod n_VAR 242) 0)))
(assert (not (= (mod n_VAR 243) 0)))
(assert (not (= (mod n_VAR 244) 0)))
(assert (not (= (mod n_VAR 245) 0)))
(assert (not (= (mod n_VAR 246) 0)))
(assert (not (= (mod n_VAR 247) 0)))
(assert (not (= (mod n_VAR 248) 0)))
(assert (not (= (mod n_VAR 249) 0)))
(assert (not (= (mod n_VAR 250) 0)))
(assert (not (= (mod n_VAR 251) 0)))
(assert (not (= (mod n_VAR 252) 0)))
(assert (not (= (mod n_VAR 253) 0)))
(assert (not (= (mod n_VAR 254) 0)))
(assert (not (= (mod n_VAR 255) 0)))
(assert (not (= (mod n_VAR 256) 0)))
(assert (not (= (mod n_VAR 257) 0)))
(assert (not (= (mod n_VAR 258) 0)))
(assert (not (= (mod n_VAR 259) 0)))
(assert (not (= (mod n_VAR 260) 0)))
(assert (not (= (mod n_VAR 261) 0)))
(assert (not (= (mod n_VAR 262) 0)))
(assert (not (= (mod n_VAR 263) 0)))
(assert (not (= (mod n_VAR 264) 0)))
(assert (not (= (mod n_VAR 265) 0)))
(assert (not (= (mod n_VAR 266) 0)))
(assert (not (= (mod n_VAR 267) 0)))
(assert (not (= (mod n_VAR 268) 0)))
(assert (not (= (mod n_VAR 269) 0)))
(assert (not (= (mod n_VAR 270) 0)))
(assert (not (= (mod n_VAR 271) 0)))
(assert (not (= (mod n_VAR 272) 0)))
(assert (not (= (mod n_VAR 273) 0)))
(assert (not (= (mod n_VAR 274) 0)))
(assert (not (= (mod n_VAR 275) 0)))
(assert (not (= (mod n_VAR 276) 0)))
(assert (not (= (mod n_VAR 277) 0)))
(assert (not (= (mod n_VAR 278) 0)))
(assert (not (= (mod n_VAR 279) 0)))
(assert (not (= (mod n_VAR 280) 0)))
(assert (not (= (mod n_VAR 281) 0)))
(assert (not (= (mod n_VAR 282) 0)))
(assert (not (= (mod n_VAR 283) 0)))
(assert (not (= (mod n_VAR 284) 0)))
(assert (not (= (mod n_VAR 285) 0)))
(assert (not (= (mod n_VAR 286) 0)))
(assert (not (= (mod n_VAR 287) 0)))
(assert (not (= (mod n_VAR 288) 0)))
(assert (not (= (mod n_VAR 289) 0)))
(assert (not (= (mod n_VAR 290) 0)))
(assert (not (= (mod n_VAR 291) 0)))
(assert (not (= (mod n_VAR 292) 0)))
(assert (not (= (mod n_VAR 293) 0)))
(assert (not (= (mod n_VAR 294) 0)))
(assert (not (= (mod n_VAR 295) 0)))
(assert (not (= (mod n_VAR 296) 0)))
(assert (not (= (mod n_VAR 297) 0)))
(assert (not (= (mod n_VAR 298) 0)))
(assert (not (= (mod n_VAR 299) 0)))
(assert (not (= (mod n_VAR 300) 0)))
(assert (not (= (mod n_VAR 301) 0)))
(assert (not (= (mod n_VAR 302) 0)))
(assert (not (= (mod n_VAR 303) 0)))
(assert (not (= (mod n_VAR 304) 0)))
(assert (not (= (mod n_VAR 305) 0)))
(assert (not (= (mod n_VAR 306) 0)))
(assert (not (= (mod n_VAR 307) 0)))
(assert (not (= (mod n_VAR 308) 0)))
(assert (not (= (mod n_VAR 309) 0)))
(assert (not (= (mod n_VAR 310) 0)))
(assert (not (= (mod n_VAR 311) 0)))
(assert (not (= (mod n_VAR 312) 0)))
(assert (not (= (mod n_VAR 313) 0)))
(assert (not (= (mod n_VAR 314) 0)))
(assert (not (= (mod n_VAR 315) 0)))
(assert (not (= (mod n_VAR 316) 0)))
(assert (not (= (mod n_VAR 317) 0)))
(assert (not (= (mod n_VAR 318) 0)))
(assert (not (= (mod n_VAR 319) 0)))
(assert (not (= (mod n_VAR 320) 0)))
(assert (not (= (mod n_VAR 321) 0)))
(assert (not (= (mod n_VAR 322) 0)))
(assert (not (= (mod n_VAR 323) 0)))
(assert (not (= (mod n_VAR 324) 0)))
(assert (not (= (mod n_VAR 325) 0)))
(assert (not (= (mod n_VAR 326) 0)))
(assert (not (= (mod n_VAR 327) 0)))
(assert (not (= (mod n_VAR 328) 0)))
(assert (not (= (mod n_VAR 329) 0)))
(assert (not (= (mod n_VAR 330) 0)))
(assert (not (= (mod n_VAR 331) 0)))
(assert (not (= (mod n_VAR 332) 0)))
(assert (not (= (mod n_VAR 333) 0)))
(assert (not (= (mod n_VAR 334) 0)))
(assert (not (= (mod n_VAR 335) 0)))
(assert (not (= (mod n_VAR 336) 0)))
(assert (not (= (mod n_VAR 337) 0)))
(assert (not (= (mod n_VAR 338) 0)))
(assert (not (= (mod n_VAR 339) 0)))
(assert (not (= (mod n_VAR 340) 0)))
(assert (not (= (mod n_VAR 341) 0)))
(assert (not (= (mod n_VAR 342) 0)))
(assert (not (= (mod n_VAR 343) 0)))
(assert (not (= (mod n_VAR 344) 0)))
(assert (not (= (mod n_VAR 345) 0)))
(assert (not (= (mod n_VAR 346) 0)))
(assert (not (= (mod n_VAR 347) 0)))
(assert (not (= (mod n_VAR 348) 0)))
(assert (not (= (mod n_VAR 349) 0)))
(assert (not (= (mod n_VAR 350) 0)))
(assert (not (= (mod n_VAR 351) 0)))
(assert (not (= (mod n_VAR 352) 0)))
(assert (not (= (mod n_VAR 353) 0)))
(assert (not (= (mod n_VAR 354) 0)))
(assert (not (= (mod n_VAR 355) 0)))
(assert (not (= (mod n_VAR 356) 0)))
(assert (not (= (mod n_VAR 357) 0)))
(assert (not (= (mod n_VAR 358) 0)))
(assert (not (= (mod n_VAR 359) 0)))
(assert (not (= (mod n_VAR 360) 0)))
(assert (not (= (mod n_VAR 361) 0)))
(assert (not (= (mod n_VAR 362) 0)))
(assert (not (= (mod n_VAR 363) 0)))
(assert (not (= (mod n_VAR 364) 0)))
(assert (not (= (mod n_VAR 365) 0)))
(assert (not (= (mod n_VAR 366) 0)))
(assert (not (= (mod n_VAR 367) 0)))
(assert (not (= (mod n_VAR 368) 0)))
(assert (not (= (mod n_VAR 369) 0)))
(assert (not (= (mod n_VAR 370) 0)))
(assert (not (= (mod n_VAR 371) 0)))
(assert (not (= (mod n_VAR 372) 0)))
(assert (not (= (mod n_VAR 373) 0)))
(assert (not (= (mod n_VAR 374) 0)))
(assert (not (= (mod n_VAR 375) 0)))
(assert (not (= (mod n_VAR 376) 0)))
(assert (not (= (mod n_VAR 377) 0)))
(assert (not (= (mod n_VAR 378) 0)))
(assert (not (= (mod n_VAR 379) 0)))
(assert (not (= (mod n_VAR 380) 0)))
(assert (not (= (mod n_VAR 381) 0)))
(assert (not (= (mod n_VAR 382) 0)))
(assert (not (= (mod n_VAR 383) 0)))
(assert (not (= (mod n_VAR 384) 0)))
(assert (not (= (mod n_VAR 385) 0)))
(assert (not (= (mod n_VAR 386) 0)))
(assert (not (= (mod n_VAR 387) 0)))
(assert (not (= (mod n_VAR 388) 0)))
(assert (not (= (mod n_VAR 389) 0)))
(assert (not (= (mod n_VAR 390) 0)))
(assert (not (= (mod n_VAR 391) 0)))
(assert (not (= (mod n_VAR 392) 0)))
(assert (not (= (mod n_VAR 393) 0)))
(assert (not (= (mod n_VAR 394) 0)))
(assert (not (= (mod n_VAR 395) 0)))
(assert (not (= (mod n_VAR 396) 0)))
(assert (not (= (mod n_VAR 397) 0)))
(assert (not (= (mod n_VAR 398) 0)))
(assert (not (= (mod n_VAR 399) 0)))
(assert (not (= (mod n_VAR 400) 0)))
(assert (not (= (mod n_VAR 401) 0)))
(assert (not (= (mod n_VAR 402) 0)))
(assert (not (= (mod n_VAR 403) 0)))
(assert (not (= (mod n_VAR 404) 0)))
(assert (not (= (mod n_VAR 405) 0)))
(assert (not (= (mod n_VAR 406) 0)))
(assert (not (= (mod n_VAR 407) 0)))
(assert (not (= (mod n_VAR 408) 0)))
(assert (not (= (mod n_VAR 409) 0)))
(assert (not (= (mod n_VAR 410) 0)))
(assert (not (= (mod n_VAR 411) 0)))
(assert (not (= (mod n_VAR 412) 0)))
(assert (not (= (mod n_VAR 413) 0)))
(assert (not (= (mod n_VAR 414) 0)))
(assert (not (= (mod n_VAR 415) 0)))
(assert (not (= (mod n_VAR 416) 0)))
(assert (not (= (mod n_VAR 417) 0)))
(assert (not (= (mod n_VAR 418) 0)))
(assert (not (= (mod n_VAR 419) 0)))
(assert (not (= (mod n_VAR 420) 0)))
(assert (not (= (mod n_VAR 421) 0)))
(assert (not (= (mod n_VAR 422) 0)))
(assert (not (= (mod n_VAR 423) 0)))
(assert (not (= (mod n_VAR 424) 0)))
(assert (not (= (mod n_VAR 425) 0)))
(assert (not (= (mod n_VAR 426) 0)))
(assert (not (= (mod n_VAR 427) 0)))
(assert (not (= (mod n_VAR 428) 0)))
(assert (not (= (mod n_VAR 429) 0)))
(assert (not (= (mod n_VAR 430) 0)))
(assert (not (not (= (mod n_VAR 431) 0))))
(check-sat)
(get-value (n_VAR))
